p wcnf 136 204 205 
1 12 7 0 
1 20 116 0 
1 -68 98 0 
1 10 40 0 
1 55 15 0 
1 -59 70 0 
1 11 -91 0 
1 46 -20 0 
1 -41 35 0 
1 -52 -108 0 
1 -82 -33 0 
1 26 61 0 
1 -104 28 0 
1 103 82 0 
1 134 -135 0 
1 -74 65 0 
1 -79 46 0 
1 -125 -127 0 
1 61 -126 0 
1 24 126 0 
1 22 -72 0 
1 -17 -75 0 
1 43 123 0 
1 125 -76 0 
1 65 2 0 
1 20 -125 0 
1 91 -108 0 
1 97 -63 0 
1 86 81 0 
1 130 -68 0 
1 -85 88 0 
1 -98 49 0 
1 118 23 0 
1 18 111 0 
1 98 -7 0 
1 -54 65 0 
1 11 -64 0 
1 -14 54 0 
1 132 28 0 
1 -97 -83 0 
1 27 23 0 
1 60 -93 0 
1 90 114 0 
1 -24 -122 0 
1 77 92 0 
1 -63 -62 0 
1 119 -129 0 
1 75 -59 0 
1 33 -112 0 
1 -86 -136 0 
1 -54 52 0 
1 90 -81 0 
1 -7 94 0 
1 -2 -73 0 
1 19 63 0 
1 -15 -46 0 
1 -106 98 0 
1 11 13 0 
1 135 -2 0 
1 74 87 0 
1 -2 -127 0 
1 -61 119 0 
1 -113 21 0 
1 -43 -106 0 
1 33 -60 0 
1 -136 -85 0 
1 -114 -113 0 
1 -59 -75 0 
1 -120 -28 0 
1 -90 -84 0 
1 -28 19 0 
1 62 -54 0 
1 -10 -60 0 
1 -62 34 0 
1 17 93 0 
1 -15 -14 0 
1 -9 -40 0 
1 -68 -25 0 
1 -10 60 0 
1 -89 118 0 
1 -27 30 0 
1 -27 -39 0 
1 99 89 0 
1 -2 120 0 
1 34 -98 0 
1 -16 -61 0 
1 43 -44 0 
1 70 58 0 
1 -93 132 0 
1 70 78 0 
1 125 115 0 
1 96 79 0 
1 24 -19 0 
1 -132 35 0 
1 78 -96 0 
1 12 26 0 
1 5 -16 0 
1 112 -101 0 
1 12 -4 0 
1 114 -84 0 
1 64 102 0 
1 -111 -70 0 
1 -45 -79 0 
1 -46 124 0 
1 116 -117 0 
1 52 -117 0 
1 123 50 0 
1 76 -4 0 
1 -74 -8 0 
1 -66 -19 0 
1 94 -82 0 
1 33 126 0 
1 89 -39 0 
1 -32 -109 0 
1 120 -58 0 
1 128 49 0 
1 -20 67 0 
1 -89 33 0 
1 113 58 0 
1 58 -81 0 
1 127 -78 0 
1 -44 84 0 
1 -88 20 0 
1 -40 -83 0 
1 65 111 0 
1 -61 130 0 
1 -126 24 0 
1 -89 120 0 
1 52 10 0 
1 -55 6 0 
1 -89 -69 0 
1 -21 -128 0 
1 32 -105 0 
1 52 -23 0 
1 -60 28 0 
1 -116 39 0 
1 8 -126 0 
1 64 -5 0 
1 -105 25 0 
1 -1 49 0 
1 -3 79 0 
1 130 -77 0 
1 -21 -7 0 
1 114 -96 0 
1 24 -61 0 
1 26 -126 0 
1 -132 -17 0 
1 -127 -88 0 
1 -103 127 0 
1 54 64 0 
1 -71 -117 0 
1 128 -111 0 
1 -55 129 0 
1 -96 -64 0 
1 105 113 0 
1 -21 27 0 
1 100 107 0 
1 15 -74 0 
1 55 -58 0 
1 -31 -33 0 
1 -18 4 0 
1 -104 -85 0 
1 -132 48 0 
1 66 -55 0 
1 31 89 0 
1 70 -40 0 
1 56 -52 0 
1 -27 -124 0 
1 41 23 0 
1 -20 -6 0 
1 35 -136 0 
1 -54 -21 0 
1 118 95 0 
1 -114 -126 0 
1 67 59 0 
1 136 -44 0 
1 -136 76 0 
1 69 -23 0 
1 -33 93 0 
1 -118 -22 0 
1 -125 -106 0 
1 -13 104 0 
1 23 -96 0 
1 -33 -100 0 
1 60 89 0 
1 -44 30 0 
1 -49 65 0 
1 45 -132 0 
1 69 -38 0 
1 -46 1 0 
1 7 -47 0 
1 89 70 0 
1 -88 -135 0 
1 8 -92 0 
1 101 116 0 
1 132 -123 0 
1 -117 96 0 
1 -22 26 0 
1 113 -53 0 
1 -116 38 0 
1 21 -61 0 
1 125 22 0 
1 51 -33 0 
1 92 -65 0 
